(set-logic QF_ABV)

(declare-const __ESBMC_ptr_obj_start_0 (_ BitVec 64))

(declare-const __ESBMC_ptr_obj_end_0 (_ BitVec 64))

(declare-const __ESBMC_ptr_obj_start_1 (_ BitVec 64))

(declare-const __ESBMC_ptr_obj_end_1 (_ BitVec 64))

(declare-const |smt_conv::__ESBMC_ptr_addr_range_0..start0| (_ BitVec 64))

(declare-const |smt_conv::__ESBMC_ptr_addr_range_0..end0| (_ BitVec 64))

(declare-const |smt_conv::__ESBMC_ptr_addr_range_1..start0| (_ BitVec 64))

(declare-const |smt_conv::__ESBMC_ptr_addr_range_1..end0| (_ BitVec 64))

(declare-const |smt_conv::smt_conv::collate_array_vals::3..start0| (_ BitVec 64))

(declare-const |smt_conv::smt_conv::collate_array_vals::3..end0| (_ BitVec 64))

(declare-const |smt_conv::smt_conv::collate_array_vals::4..start0| (_ BitVec 64))

(declare-const |smt_conv::smt_conv::collate_array_vals::4..end0| (_ BitVec 64))

(declare-const |smt_conv::smt_conv::collate_array_vals::7..start0| (_ BitVec 64))

(declare-const |smt_conv::smt_conv::collate_array_vals::7..end0| (_ BitVec 64))

(declare-const |c:array_init_both_ends_multiple_sum.c@507@F@main@i?1!0&0#2| (_ BitVec 32))

(declare-const |nondet$symex::nondet7| (_ BitVec 32))

(declare-const |goto_symex::guard?0!0&0#1| (_ BitVec 1))

(declare-const |c:array_init_both_ends_multiple_sum.c@507@F@main@i?1!0&0#3| (_ BitVec 32))

(declare-const |goto_symex::guard?0!0&0#2| (_ BitVec 1))

(declare-const |c:array_init_both_ends_multiple_sum.c@507@F@main@i?1!0&0#4| (_ BitVec 32))

(declare-const |goto_symex::guard?0!0&0#3| (_ BitVec 1))

(declare-const |c:array_init_both_ends_multiple_sum.c@507@F@main@i?1!0&0#10| (_ BitVec 32))

(declare-const |nondet$symex::nondet9| (_ BitVec 32))

(declare-const |c:@N&0#2| (_ BitVec 32))

(declare-const |nondet$symex::nondet11| (_ BitVec 32))

(declare-const |goto_symex::guard?0!0&0#4| (_ BitVec 1))

(declare-const |c:array_init_both_ends_multiple_sum.c@507@F@main@i?1!0&0#11| (_ BitVec 32))

(declare-const |goto_symex::guard?0!0&0#5| (_ BitVec 1))

(declare-const |c:array_init_both_ends_multiple_sum.c@507@F@main@i?1!0&0#12| (_ BitVec 32))

(declare-const |goto_symex::guard?0!0&0#6| (_ BitVec 1))

(declare-const |c:array_init_both_ends_multiple_sum.c@507@F@main@i?1!0&0#18| (_ BitVec 32))

(declare-const |nondet$symex::nondet12| (_ BitVec 32))

(declare-const |c:array_init_both_ends_multiple_sum.c@516@F@main@sum?1!0&0#2| (_ BitVec 32))

(declare-const |nondet$symex::nondet13| (_ BitVec 32))

(declare-const |goto_symex::guard?0!0&0#7| (_ BitVec 1))

(declare-const |c:array_init_both_ends_multiple_sum.c@516@F@main@sum?1!0&0#3| (_ BitVec 32))

(declare-const |c:array_init_both_ends_multiple_sum.c@507@F@main@i?1!0&0#19| (_ BitVec 32))

(declare-const |goto_symex::guard?0!0&0#8| (_ BitVec 1))

(declare-const |c:array_init_both_ends_multiple_sum.c@516@F@main@sum?1!0&0#4| (_ BitVec 32))

(declare-const |c:array_init_both_ends_multiple_sum.c@507@F@main@i?1!0&0#20| (_ BitVec 32))

(declare-const |goto_symex::guard?0!0&0#9| (_ BitVec 1))

(declare-const |c:array_init_both_ends_multiple_sum.c@516@F@main@sum?1!0&0#5| (_ BitVec 32))

(declare-const |c:array_init_both_ends_multiple_sum.c@516@F@main@sum?1!0&0#6| (_ BitVec 32))

(declare-const |c:array_init_both_ends_multiple_sum.c@516@F@main@sum?1!0&0#7| (_ BitVec 32))

(declare-const |c:array_init_both_ends_multiple_sum.c@516@F@main@sum?1!0&0#8| (_ BitVec 32))

(declare-const |c:array_init_both_ends_multiple_sum.c@390@F@__VERIFIER_assert@cond?1!0&0#1| (_ BitVec 32))

(declare-const |goto_symex::guard?0!0&0#10| (_ BitVec 1))

(declare-const |execution_statet::guard_exec?0!0| (_ BitVec 1))

(declare-const |c:array_init_both_ends_multiple_sum.c@483@F@main@a?1!0&0#1| (Array (_ BitVec 17) (_ BitVec 32)))

(declare-const |nondet$symex::nondet8| (Array (_ BitVec 17) (_ BitVec 32)))

(declare-const |c:array_init_both_ends_multiple_sum.c@483@F@main@a?1!0&0#2| (Array (_ BitVec 17) (_ BitVec 32)))

(declare-const |c:array_init_both_ends_multiple_sum.c@483@F@main@a?1!0&0#3| (Array (_ BitVec 17) (_ BitVec 32)))

(declare-const |c:array_init_both_ends_multiple_sum.c@483@F@main@a?1!0&0#4| (Array (_ BitVec 17) (_ BitVec 32)))

(declare-const |c:array_init_both_ends_multiple_sum.c@483@F@main@a?1!0&0#5| (Array (_ BitVec 17) (_ BitVec 32)))

(declare-const |c:array_init_both_ends_multiple_sum.c@483@F@main@a?1!0&0#6| (Array (_ BitVec 17) (_ BitVec 32)))

(declare-const |c:array_init_both_ends_multiple_sum.c@483@F@main@a?1!0&0#7| (Array (_ BitVec 17) (_ BitVec 32)))

(declare-const |c:array_init_both_ends_multiple_sum.c@495@F@main@b?1!0&0#1| (Array (_ BitVec 17) (_ BitVec 32)))

(declare-const |nondet$symex::nondet10| (Array (_ BitVec 17) (_ BitVec 32)))

(declare-const |c:array_init_both_ends_multiple_sum.c@495@F@main@b?1!0&0#2| (Array (_ BitVec 17) (_ BitVec 32)))

(declare-const |c:array_init_both_ends_multiple_sum.c@495@F@main@b?1!0&0#3| (Array (_ BitVec 17) (_ BitVec 32)))

(declare-const |c:array_init_both_ends_multiple_sum.c@495@F@main@b?1!0&0#4| (Array (_ BitVec 17) (_ BitVec 32)))

(declare-const |c:array_init_both_ends_multiple_sum.c@495@F@main@b?1!0&0#5| (Array (_ BitVec 17) (_ BitVec 32)))

(declare-const |c:array_init_both_ends_multiple_sum.c@495@F@main@b?1!0&0#6| (Array (_ BitVec 17) (_ BitVec 32)))

(declare-const |c:array_init_both_ends_multiple_sum.c@495@F@main@b?1!0&0#7| (Array (_ BitVec 17) (_ BitVec 32)))

(define-fun $e1 () Bool 

 (bvslt |c:array_init_both_ends_multiple_sum.c@507@F@main@i?1!0&0#2| #b00000000000000011000011010100000))

(define-fun $e2 () Bool 

 (bvslt |c:array_init_both_ends_multiple_sum.c@507@F@main@i?1!0&0#10| |c:@N&0#2|))

(define-fun $e3 () Bool 

 (bvslt |c:array_init_both_ends_multiple_sum.c@507@F@main@i?1!0&0#18| |c:@N&0#2|))

(assert 

 (= __ESBMC_ptr_obj_start_0 #b0000000000000000000000000000000000000000000000000000000000000000))

(assert 

 (= #b0000000000000000000000000000000000000000000000000000000000000000 __ESBMC_ptr_obj_end_0))

(assert 

 (= __ESBMC_ptr_obj_start_1 #b0000000000000000000000000000000000000000000000000000000000000001))

(assert 

 (= #b1111111111111111111111111111111111111111111111111111111111111111 __ESBMC_ptr_obj_end_1))

(assert 

 (= __ESBMC_ptr_obj_end_0 |smt_conv::__ESBMC_ptr_addr_range_0..end0|))

(assert 

 (= __ESBMC_ptr_obj_start_0 |smt_conv::__ESBMC_ptr_addr_range_0..start0|))

(assert 

 (= __ESBMC_ptr_obj_end_1 |smt_conv::__ESBMC_ptr_addr_range_1..end0|))

(assert 

 (= __ESBMC_ptr_obj_start_1 |smt_conv::__ESBMC_ptr_addr_range_1..start0|))

(assert 

 (= |smt_conv::smt_conv::collate_array_vals::3..end0| |smt_conv::smt_conv::collate_array_vals::4..end0|))

(assert 

 (= |smt_conv::smt_conv::collate_array_vals::3..start0| |smt_conv::smt_conv::collate_array_vals::4..start0|))

(assert 

 (= __ESBMC_ptr_obj_end_0 |smt_conv::smt_conv::collate_array_vals::7..end0|))

(assert 

 (= __ESBMC_ptr_obj_start_0 |smt_conv::smt_conv::collate_array_vals::7..start0|))

(assert 

 (= |c:array_init_both_ends_multiple_sum.c@507@F@main@i?1!0&0#2| |nondet$symex::nondet7|))

(assert 

 (= |nondet$symex::nondet8| |c:array_init_both_ends_multiple_sum.c@483@F@main@a?1!0&0#1|))

(assert 

 (= 

  (ite $e1 #b1 #b0) |goto_symex::guard?0!0&0#1|))

(assert 

 (= |c:array_init_both_ends_multiple_sum.c@483@F@main@a?1!0&0#2| 

  (store |c:array_init_both_ends_multiple_sum.c@483@F@main@a?1!0&0#1| 

   ((_ extract 16 0) |c:array_init_both_ends_multiple_sum.c@507@F@main@i?1!0&0#2|) |c:array_init_both_ends_multiple_sum.c@507@F@main@i?1!0&0#2|)))

(assert 

 (= |c:array_init_both_ends_multiple_sum.c@507@F@main@i?1!0&0#3| 

  (bvadd |c:array_init_both_ends_multiple_sum.c@507@F@main@i?1!0&0#2| #b00000000000000000000000000000001)))

(assert 

 (= |goto_symex::guard?0!0&0#2| 

  (ite 

   (bvslt |c:array_init_both_ends_multiple_sum.c@507@F@main@i?1!0&0#3| #b00000000000000011000011010100000) #b1 #b0)))

(assert 

 (= |c:array_init_both_ends_multiple_sum.c@483@F@main@a?1!0&0#3| 

  (store |c:array_init_both_ends_multiple_sum.c@483@F@main@a?1!0&0#2| 

   ((_ extract 16 0) |c:array_init_both_ends_multiple_sum.c@507@F@main@i?1!0&0#3|) |c:array_init_both_ends_multiple_sum.c@507@F@main@i?1!0&0#3|)))

(assert 

 (= |c:array_init_both_ends_multiple_sum.c@507@F@main@i?1!0&0#4| 

  (bvadd |c:array_init_both_ends_multiple_sum.c@507@F@main@i?1!0&0#3| #b00000000000000000000000000000001)))

(assert 

 (= |goto_symex::guard?0!0&0#3| 

  (ite 

   (bvslt |c:array_init_both_ends_multiple_sum.c@507@F@main@i?1!0&0#4| #b00000000000000011000011010100000) #b1 #b0)))

(assert 

 (= |c:array_init_both_ends_multiple_sum.c@483@F@main@a?1!0&0#4| 

  (store |c:array_init_both_ends_multiple_sum.c@483@F@main@a?1!0&0#3| 

   ((_ extract 16 0) |c:array_init_both_ends_multiple_sum.c@507@F@main@i?1!0&0#4|) |c:array_init_both_ends_multiple_sum.c@507@F@main@i?1!0&0#4|)))

(assert 

 (= |c:array_init_both_ends_multiple_sum.c@483@F@main@a?1!0&0#5| 

  (ite 

   (= #b1 |goto_symex::guard?0!0&0#3|) |c:array_init_both_ends_multiple_sum.c@483@F@main@a?1!0&0#4| |c:array_init_both_ends_multiple_sum.c@483@F@main@a?1!0&0#3|)))

(assert 

 (= |c:array_init_both_ends_multiple_sum.c@483@F@main@a?1!0&0#6| 

  (ite 

   (= #b1 |goto_symex::guard?0!0&0#2|) |c:array_init_both_ends_multiple_sum.c@483@F@main@a?1!0&0#5| |c:array_init_both_ends_multiple_sum.c@483@F@main@a?1!0&0#2|)))

(assert 

 (= |c:array_init_both_ends_multiple_sum.c@483@F@main@a?1!0&0#7| 

  (ite 

   (= #b1 |goto_symex::guard?0!0&0#1|) |c:array_init_both_ends_multiple_sum.c@483@F@main@a?1!0&0#6| |c:array_init_both_ends_multiple_sum.c@483@F@main@a?1!0&0#1|)))

(assert 

 (= |c:array_init_both_ends_multiple_sum.c@507@F@main@i?1!0&0#10| |nondet$symex::nondet9|))

(assert 

 (= |nondet$symex::nondet10| |c:array_init_both_ends_multiple_sum.c@495@F@main@b?1!0&0#1|))

(assert 

 (= |c:@N&0#2| |nondet$symex::nondet11|))

(assert 

 (= 

  (ite $e2 #b1 #b0) |goto_symex::guard?0!0&0#4|))

(assert 

 (= |c:array_init_both_ends_multiple_sum.c@495@F@main@b?1!0&0#2| 

  (store |c:array_init_both_ends_multiple_sum.c@495@F@main@b?1!0&0#1| 

   ((_ extract 16 0) 

    (bvadd #b11111111111111111111111111111111 

     (bvadd |c:@N&0#2| 

      (bvadd #b00000000000000000000000000000001 

       (bvnot |c:array_init_both_ends_multiple_sum.c@507@F@main@i?1!0&0#10|))))) |c:array_init_both_ends_multiple_sum.c@507@F@main@i?1!0&0#10|)))

(assert 

 (= |c:array_init_both_ends_multiple_sum.c@507@F@main@i?1!0&0#11| 

  (bvadd #b00000000000000000000000000000001 |c:array_init_both_ends_multiple_sum.c@507@F@main@i?1!0&0#10|)))

(assert 

 (= |goto_symex::guard?0!0&0#5| 

  (ite 

   (bvslt |c:array_init_both_ends_multiple_sum.c@507@F@main@i?1!0&0#11| |c:@N&0#2|) #b1 #b0)))

(assert 

 (= |c:array_init_both_ends_multiple_sum.c@495@F@main@b?1!0&0#3| 

  (store |c:array_init_both_ends_multiple_sum.c@495@F@main@b?1!0&0#2| 

   ((_ extract 16 0) 

    (bvadd #b11111111111111111111111111111111 

     (bvadd |c:@N&0#2| 

      (bvadd #b00000000000000000000000000000001 

       (bvnot |c:array_init_both_ends_multiple_sum.c@507@F@main@i?1!0&0#11|))))) |c:array_init_both_ends_multiple_sum.c@507@F@main@i?1!0&0#11|)))

(assert 

 (= |c:array_init_both_ends_multiple_sum.c@507@F@main@i?1!0&0#12| 

  (bvadd #b00000000000000000000000000000001 |c:array_init_both_ends_multiple_sum.c@507@F@main@i?1!0&0#11|)))

(assert 

 (= |goto_symex::guard?0!0&0#6| 

  (ite 

   (bvslt |c:array_init_both_ends_multiple_sum.c@507@F@main@i?1!0&0#12| |c:@N&0#2|) #b1 #b0)))

(assert 

 (= |c:array_init_both_ends_multiple_sum.c@495@F@main@b?1!0&0#4| 

  (store |c:array_init_both_ends_multiple_sum.c@495@F@main@b?1!0&0#3| 

   ((_ extract 16 0) 

    (bvadd #b11111111111111111111111111111111 

     (bvadd |c:@N&0#2| 

      (bvadd #b00000000000000000000000000000001 

       (bvnot |c:array_init_both_ends_multiple_sum.c@507@F@main@i?1!0&0#12|))))) |c:array_init_both_ends_multiple_sum.c@507@F@main@i?1!0&0#12|)))

(assert 

 (= |c:array_init_both_ends_multiple_sum.c@495@F@main@b?1!0&0#5| 

  (ite 

   (= #b1 |goto_symex::guard?0!0&0#6|) |c:array_init_both_ends_multiple_sum.c@495@F@main@b?1!0&0#4| |c:array_init_both_ends_multiple_sum.c@495@F@main@b?1!0&0#3|)))

(assert 

 (= |c:array_init_both_ends_multiple_sum.c@495@F@main@b?1!0&0#6| 

  (ite 

   (= #b1 |goto_symex::guard?0!0&0#5|) |c:array_init_both_ends_multiple_sum.c@495@F@main@b?1!0&0#5| |c:array_init_both_ends_multiple_sum.c@495@F@main@b?1!0&0#2|)))

(assert 

 (= |c:array_init_both_ends_multiple_sum.c@495@F@main@b?1!0&0#7| 

  (ite 

   (= #b1 |goto_symex::guard?0!0&0#4|) |c:array_init_both_ends_multiple_sum.c@495@F@main@b?1!0&0#6| |c:array_init_both_ends_multiple_sum.c@495@F@main@b?1!0&0#1|)))

(assert 

 (= |c:array_init_both_ends_multiple_sum.c@507@F@main@i?1!0&0#18| |nondet$symex::nondet12|))

(assert 

 (= |c:array_init_both_ends_multiple_sum.c@516@F@main@sum?1!0&0#2| |nondet$symex::nondet13|))

(assert 

 (= 

  (ite $e3 #b1 #b0) |goto_symex::guard?0!0&0#7|))

(assert 

 (= |c:array_init_both_ends_multiple_sum.c@516@F@main@sum?1!0&0#3| 

  (bvadd |c:array_init_both_ends_multiple_sum.c@516@F@main@sum?1!0&0#2| 

   (bvadd 

    (select |c:array_init_both_ends_multiple_sum.c@483@F@main@a?1!0&0#7| 

     ((_ extract 16 0) |c:array_init_both_ends_multiple_sum.c@507@F@main@i?1!0&0#18|)) 

    (bvadd #b00000000000000000000000000000001 

     (bvnot 

      (select |c:array_init_both_ends_multiple_sum.c@495@F@main@b?1!0&0#7| 

       ((_ extract 16 0) 

        (bvadd #b11111111111111111111111111111111 

         (bvadd |c:@N&0#2| 

          (bvadd #b00000000000000000000000000000001 

           (bvnot |c:array_init_both_ends_multiple_sum.c@507@F@main@i?1!0&0#18|))))))))))))

(assert 

 (= |c:array_init_both_ends_multiple_sum.c@507@F@main@i?1!0&0#19| 

  (bvadd #b00000000000000000000000000000001 |c:array_init_both_ends_multiple_sum.c@507@F@main@i?1!0&0#18|)))

(assert 

 (= |goto_symex::guard?0!0&0#8| 

  (ite 

   (bvslt |c:array_init_both_ends_multiple_sum.c@507@F@main@i?1!0&0#19| |c:@N&0#2|) #b1 #b0)))

(assert 

 (= |c:array_init_both_ends_multiple_sum.c@516@F@main@sum?1!0&0#4| 

  (bvadd |c:array_init_both_ends_multiple_sum.c@516@F@main@sum?1!0&0#3| 

   (bvadd 

    (select |c:array_init_both_ends_multiple_sum.c@483@F@main@a?1!0&0#7| 

     ((_ extract 16 0) |c:array_init_both_ends_multiple_sum.c@507@F@main@i?1!0&0#19|)) 

    (bvadd #b00000000000000000000000000000001 

     (bvnot 

      (select |c:array_init_both_ends_multiple_sum.c@495@F@main@b?1!0&0#7| 

       ((_ extract 16 0) 

        (bvadd #b11111111111111111111111111111111 

         (bvadd |c:@N&0#2| 

          (bvadd #b00000000000000000000000000000001 

           (bvnot |c:array_init_both_ends_multiple_sum.c@507@F@main@i?1!0&0#19|))))))))))))

(assert 

 (= |c:array_init_both_ends_multiple_sum.c@507@F@main@i?1!0&0#20| 

  (bvadd #b00000000000000000000000000000001 |c:array_init_both_ends_multiple_sum.c@507@F@main@i?1!0&0#19|)))

(assert 

 (= |goto_symex::guard?0!0&0#9| 

  (ite 

   (bvslt |c:array_init_both_ends_multiple_sum.c@507@F@main@i?1!0&0#20| |c:@N&0#2|) #b1 #b0)))

(assert 

 (= |c:array_init_both_ends_multiple_sum.c@516@F@main@sum?1!0&0#5| 

  (bvadd |c:array_init_both_ends_multiple_sum.c@516@F@main@sum?1!0&0#4| 

   (bvadd 

    (select |c:array_init_both_ends_multiple_sum.c@483@F@main@a?1!0&0#7| 

     ((_ extract 16 0) |c:array_init_both_ends_multiple_sum.c@507@F@main@i?1!0&0#20|)) 

    (bvadd #b00000000000000000000000000000001 

     (bvnot 

      (select |c:array_init_both_ends_multiple_sum.c@495@F@main@b?1!0&0#7| 

       ((_ extract 16 0) 

        (bvadd #b11111111111111111111111111111111 

         (bvadd |c:@N&0#2| 

          (bvadd #b00000000000000000000000000000001 

           (bvnot |c:array_init_both_ends_multiple_sum.c@507@F@main@i?1!0&0#20|))))))))))))

(assert 

 (= |c:array_init_both_ends_multiple_sum.c@516@F@main@sum?1!0&0#6| 

  (ite 

   (= #b1 |goto_symex::guard?0!0&0#9|) |c:array_init_both_ends_multiple_sum.c@516@F@main@sum?1!0&0#5| |c:array_init_both_ends_multiple_sum.c@516@F@main@sum?1!0&0#4|)))

(assert 

 (= |c:array_init_both_ends_multiple_sum.c@516@F@main@sum?1!0&0#7| 

  (ite 

   (= #b1 |goto_symex::guard?0!0&0#8|) |c:array_init_both_ends_multiple_sum.c@516@F@main@sum?1!0&0#6| |c:array_init_both_ends_multiple_sum.c@516@F@main@sum?1!0&0#3|)))

(assert 

 (= |c:array_init_both_ends_multiple_sum.c@516@F@main@sum?1!0&0#8| 

  (ite 

   (= #b1 |goto_symex::guard?0!0&0#7|) |c:array_init_both_ends_multiple_sum.c@516@F@main@sum?1!0&0#7| |c:array_init_both_ends_multiple_sum.c@516@F@main@sum?1!0&0#2|)))

(assert 

 (= |c:array_init_both_ends_multiple_sum.c@390@F@__VERIFIER_assert@cond?1!0&0#1| 

  (ite 

   (= #b00000000000000000000000000000000 |c:array_init_both_ends_multiple_sum.c@516@F@main@sum?1!0&0#8|) #b00000000000000000000000000000001 #b00000000000000000000000000000000)))

(assert 

 (= |goto_symex::guard?0!0&0#10| 

  (ite 

   (= #b00000000000000000000000000000000 |c:array_init_both_ends_multiple_sum.c@390@F@__VERIFIER_assert@cond?1!0&0#1|) #b1 #b0)))

(assert $e3)

(assert $e2)

(assert $e1)

(assert (= |execution_statet::guard_exec?0!0| #b1))

(assert (= |goto_symex::guard?0!0&0#10| #b1))

(check-sat)

(exit)
